words_train/words_248_SAT.qaiger
aag 95 16 0 1 79
26
28
18
30
32
16
22
2
6
20
4
12
10
24
14
8
190
34 5 3
36 34 7
38 36 9
40 38 11
42 40 13
44 41 12
46 45 43
48 46 28
50 39 10
52 51 41
54 52 26
56 37 8
58 57 39
60 58 24
62 35 6
64 63 37
66 64 22
68 4 2
70 69 35
72 70 20
74 71 21
76 75 73
78 76 2
80 78 18
82 81 73
84 65 23
86 85 67
88 86 83
90 89 67
92 59 25
94 93 61
96 94 91
98 97 61
100 53 27
102 101 55
104 102 99
106 105 55
108 47 29
110 109 49
112 110 107
114 113 49
116 42 15
118 43 14
120 119 117
122 120 30
124 121 31
126 125 123
128 126 115
130 127 114
132 131 129
134 111 106
136 135 113
138 103 98
140 139 105
142 77 19
144 142 3
146 145 81
148 147 15
150 148 17
152 150 141
154 152 137
156 154 133
158 87 82
160 159 89
162 95 90
164 163 97
166 165 161
168 166 156
170 129 123
172 117 32
174 116 33
176 175 173
178 176 170
180 177 171
182 181 17
184 182 179
186 185 168
188 184 169
190 189 187
i0 2 y[4]
i1 2 y[5]
i2 2 y[0]
i3 2 y[6]
i4 2 y[7]
i5 1 x[7]
i6 2 y[2]
i7 1 x[0]
i8 1 x[2]
i9 2 y[1]
i10 1 x[1]
i11 1 x[5]
i12 1 x[4]
i13 2 y[3]
i14 1 x[6]
i15 1 x[3]
o0 bv[0]
c
simplified
  <
    reverse
      1
    or
      >> 6
        1 x
      subtract
        2 y
        1 x
