words_train/words_248_SAT.qaiger.qdimacs
p cnf 95 238
a 1 2 3 4 5 6 7 8 0
e 9 10 11 12 13 14 15 16 17 18 19 20 21 22 23 24 25 26 27 28 29 30 31 32 33 34 35 36 37 38 39 40 41 42 43 44 45 46 47 48 49 50 51 52 53 54 55 56 57 58 59 60 61 62 63 64 65 66 67 68 69 70 71 72 73 74 75 76 77 78 79 80 81 82 83 84 85 86 87 88 89 90 91 92 93 94 95 0
2 1 17 0
-2 -17 0
-1 -17 0
-17 3 18 0
17 -18 0
-3 -18 0
-18 4 19 0
18 -19 0
-4 -19 0
-19 5 20 0
19 -20 0
-5 -20 0
-20 6 21 0
20 -21 0
-6 -21 0
20 -6 22 0
-20 -22 0
6 -22 0
22 21 23 0
-22 -23 0
-21 -23 0
-23 -14 24 0
23 -24 0
14 -24 0
19 -5 25 0
-19 -25 0
5 -25 0
25 20 26 0
-25 -26 0
-20 -26 0
-26 -13 27 0
26 -27 0
13 -27 0
18 -4 28 0
-18 -28 0
4 -28 0
28 19 29 0
-28 -29 0
-19 -29 0
-29 -12 30 0
29 -30 0
12 -30 0
17 -3 31 0
-17 -31 0
3 -31 0
31 18 32 0
-31 -32 0
-18 -32 0
-32 -11 33 0
32 -33 0
11 -33 0
-2 -1 34 0
2 -34 0
1 -34 0
34 17 35 0
-34 -35 0
-17 -35 0
-35 -10 36 0
35 -36 0
10 -36 0
35 10 37 0
-35 -37 0
-10 -37 0
37 36 38 0
-37 -38 0
-36 -38 0
-38 -1 39 0
38 -39 0
1 -39 0
-39 -9 40 0
39 -40 0
9 -40 0
40 36 41 0
-40 -41 0
-36 -41 0
32 11 42 0
-32 -42 0
-11 -42 0
42 33 43 0
-42 -43 0
-33 -43 0
-43 41 44 0
43 -44 0
-41 -44 0
44 33 45 0
-44 -45 0
-33 -45 0
29 12 46 0
-29 -46 0
-12 -46 0
46 30 47 0
-46 -47 0
-30 -47 0
-47 45 48 0
47 -48 0
-45 -48 0
48 30 49 0
-48 -49 0
-30 -49 0
26 13 50 0
-26 -50 0
-13 -50 0
50 27 51 0
-50 -51 0
-27 -51 0
-51 49 52 0
51 -52 0
-49 -52 0
52 27 53 0
-52 -53 0
-27 -53 0
23 14 54 0
-23 -54 0
-14 -54 0
54 24 55 0
-54 -55 0
-24 -55 0
-55 53 56 0
55 -56 0
-53 -56 0
56 24 57 0
-56 -57 0
-24 -57 0
-21 7 58 0
21 -58 0
-7 -58 0
21 -7 59 0
-21 -59 0
7 -59 0
59 58 60 0
-59 -60 0
-58 -60 0
-60 -15 61 0
60 -61 0
15 -61 0
60 15 62 0
-60 -62 0
-15 -62 0
62 61 63 0
-62 -63 0
-61 -63 0
-63 57 64 0
63 -64 0
-57 -64 0
63 -57 65 0
-63 -65 0
57 -65 0
65 64 66 0
-65 -66 0
-64 -66 0
55 -53 67 0
-55 -67 0
53 -67 0
67 56 68 0
-67 -68 0
-56 -68 0
51 -49 69 0
-51 -69 0
49 -69 0
69 52 70 0
-69 -70 0
-52 -70 0
38 9 71 0
-38 -71 0
-9 -71 0
-71 1 72 0
71 -72 0
-1 -72 0
72 40 73 0
-72 -73 0
-40 -73 0
73 7 74 0
-73 -74 0
-7 -74 0
-74 8 75 0
74 -75 0
-8 -75 0
-75 70 76 0
75 -76 0
-70 -76 0
-76 68 77 0
76 -77 0
-68 -77 0
-77 66 78 0
77 -78 0
-66 -78 0
43 -41 79 0
-43 -79 0
41 -79 0
79 44 80 0
-79 -80 0
-44 -80 0
47 -45 81 0
-47 -81 0
45 -81 0
81 48 82 0
-81 -82 0
-48 -82 0
82 80 83 0
-82 -83 0
-80 -83 0
-83 -78 84 0
83 -84 0
78 -84 0
64 61 85 0
-64 -85 0
-61 -85 0
58 -16 86 0
-58 -86 0
16 -86 0
-58 16 87 0
58 -87 0
-16 -87 0
87 86 88 0
-87 -88 0
-86 -88 0
-88 -85 89 0
88 -89 0
85 -89 0
88 85 90 0
-88 -90 0
-85 -90 0
90 8 91 0
-90 -91 0
-8 -91 0
-91 89 92 0
91 -92 0
-89 -92 0
92 -84 93 0
-92 -93 0
84 -93 0
-92 84 94 0
92 -94 0
-84 -94 0
94 93 95 0
-94 -95 0
-93 -95 0
95 0
